NAME : portcgen-19-12
COMMENT : portcgen N=19, seed=12
TYPE : TSP
DIMENSION : 19
EDGE_WEIGHT_TYPE : EUC_2D
NODE_COORD_SECTION
1 115443 235762
2 2963 35517
3 -208816 -103645
4 149220 275932
5 -339618 -263455
6 -46742 122843
7 -15543 454970
8 319348 177083
9 179577 243864
10 127973 -11687
11 282926 -18138
12 345447 286048
13 139482 -227727
14 99478 -24643
15 -299838 324496
16 432878 634383
17 -351541 -209766
18 204612 -15403
19 -161324 -366825
